language Essence 1.3

letting class be function(1 --> 1, 2 --> 2, 3 --> 2, 4 --> 2, 5 --> 1, 6 --> 1)
letting deck_length be 38
letting deck_width be 74
letting length be function(1 --> 27, 2 --> 37, 3 --> 1, 4 --> 1, 5 --> 1, 6 --> 1)
letting n_classes be 2
letting n_containers be 6
letting separation be function()
letting width be function(1 --> 16, 2 --> 1, 3 --> 24, 4 --> 7, 5 --> 3, 6 --> 2)
